(set-info :origin "driver benchmark extracted from Microsoft SDV")
(set-logic HORN)
(declare-fun Proc8 (Int Int Bool Int Int Int) Bool)
(declare-fun Proc43 (Int Int Bool Int) Bool)
(declare-fun Proc18 (Int Int Bool Int Int Int) Bool)
(declare-fun Proc1 (Int Int Bool Int Int Int Int) Bool)
(declare-fun Proc34 (Int Int Bool Int) Bool)
(declare-fun Proc16 (Int Int Bool Int Int) Bool)
(declare-fun Proc52 (Int Int Bool Int Int) Bool)
(declare-fun Proc10
             (Int Int Bool Int Int Int Int Int Int Int Int Int Int Int Int)
             Bool)
(declare-fun Proc2 (Int Int Bool Int Int) Bool)
(declare-fun Proc48 (Int Int Bool Int) Bool)
(declare-fun Proc12 (Int Int Bool Int Int Int Int Int) Bool)
(declare-fun Proc30 (Int Int Bool Int Int) Bool)
(declare-fun Proc36 (Int Int Bool Int) Bool)
(declare-fun Proc40 (Int Int Bool Int) Bool)
(declare-fun Proc6 (Int Int Bool Int Int Int) Bool)
(declare-fun Proc24 (Int Int Bool Int Int Int Int) Bool)
(declare-fun Proc13 (Int Int Bool Int Int Int Int) Bool)
(declare-fun Proc26 (Int Int Bool) Bool)
(declare-fun Proc3 (Int Int Bool Int Int Int) Bool)
(declare-fun Proc29 (Int Int Bool Int) Bool)
(declare-fun Proc31 (Int Int Bool Int Int Bool Int) Bool)
(declare-fun Proc38 (Int Int Bool Int) Bool)
(declare-fun Proc42 (Int Int Bool Int) Bool)
(declare-fun Proc17 (Int Int Bool Int) Bool)
(declare-fun Proc33 (Int Int Bool Int) Bool)
(declare-fun Proc49 (Int Int Bool Int Int Int Int Int) Bool)
(declare-fun Proc39 (Int Int Bool Int) Bool)
(declare-fun Proc35 (Int Int Bool Int) Bool)
(declare-fun Proc28 (Int Int Bool Int) Bool)
(declare-fun Proc5 (Int Int Bool Int Int Int Int) Bool)
(declare-fun Proc0 (Int Int Bool) Bool)
(declare-fun Proc4 (Int Int Bool Int Int) Bool)
(declare-fun Proc25 (Int Int Bool) Bool)
(declare-fun Proc27 (Int Int Bool) Bool)
(declare-fun Proc23 (Int Int Bool Int) Bool)
(declare-fun Proc19 (Int Int Bool Int Int Int) Bool)
(declare-fun Proc46 (Int Int Bool) Bool)
(declare-fun Proc22 (Int Int Bool Int) Bool)
(declare-fun Proc53 (Int Int Bool) Bool)
(declare-fun Proc44 (Int Int Bool Int) Bool)
(declare-fun Proc9 (Int Int Bool Int Int Int) Bool)
(declare-fun Proc45 (Int Int Bool Int) Bool)
(declare-fun Proc51 (Int Int Bool) Bool)
(declare-fun Proc37 (Int Int Bool Int) Bool)
(declare-fun Proc7 (Int Int Bool Int Int Int Int) Bool)
(declare-fun Proc11 (Int Int Bool Int Int Int) Bool)
(declare-fun Proc20 (Int Int Bool Int Int) Bool)
(declare-fun Proc47 (Int Int Bool Int Int) Bool)
(declare-fun Proc50 (Int Int Bool) Bool)
(declare-fun Proc21 (Int Int Bool Int Int Int Int) Bool)
(declare-fun Proc14 (Int Int Bool Int) Bool)
(declare-fun Proc15 (Int Int Bool Int Int Int) Bool)
(declare-fun Proc41 (Int Int Bool Int) Bool)
(declare-fun Proc54 (Int Int Bool Int Bool Int Int) Bool)
(declare-fun Proc32 (Int Int Bool Int) Bool)
(assert (forall ((A Int) (B Int) (C Int) (D Int) (E Int) (F Int) (G Bool))
  (let ((a!1 (not (or (not G) (not (Proc0 F E G))))))
    (=> a!1 (Proc1 F E G D C B A)))))
(assert (forall ((A Int) (B Int) (C Int) (D Int) (E Int) (F Int) (G Bool))
  (let ((a!1 (not (or (not G) (not (Proc2 F E G 0 D)) (not (= C 0))))))
    (=> a!1 (Proc3 F E G B A C)))))
(assert (forall ((A Int)
         (B Int)
         (C Int)
         (D Int)
         (E Int)
         (F Int)
         (G Bool)
         (H Int)
         (I Int))
  (let ((a!1 (or (not G) (not (Proc4 I H G F E)) (not (and (= D 0) (= C E))))))
    (=> (not a!1) (Proc5 I H G B A D C)))))
(assert (forall ((A Int)
         (B Int)
         (C Int)
         (D Int)
         (E Int)
         (F Int)
         (G Bool)
         (H Int)
         (I Int)
         (J Int)
         (K Int))
  (let ((a!1 (and (not (<= I (+ 4 K))) (not (<= I J)))))
  (let ((a!2 (or (not G)
                 (not (= K J))
                 (not a!1)
                 (not (Proc6 I H G K F E))
                 (not (and (= D 0) (= C E))))))
    (=> (not a!2) (Proc7 J H G B A D C))))))
(assert (forall ((A Int) (B Int) (C Int) (D Int) (E Int) (F Int) (G Bool))
  (let ((a!1 (not (or (not G) (not (Proc8 F E G D C B)) (not (= A 0))))))
    (=> a!1 (Proc9 F E G D C A)))))
(assert (forall ((A Int)
         (B Int)
         (C Int)
         (D Int)
         (E Int)
         (F Int)
         (G Bool)
         (H Int)
         (I Int)
         (J Int))
  (let ((a!1 (not (and (not (= I 0))
                       (= H (+ 52 I))
                       (Proc10 F E G H 99 I 0 D 0 0 0 1 1 1 C)))))
  (let ((a!2 (not (or (not G) (= J 0) (= I 0) a!1 (not (= B 0))))))
    (=> a!2 (Proc11 F E G J A B))))))
(assert (forall ((A Int)
         (B Int)
         (C Int)
         (D Int)
         (E Int)
         (F Int)
         (G Bool)
         (H Int)
         (I Int)
         (J Int))
  (let ((a!1 (not (and (not (= J 0)) (= I (+ 8 J)) (Proc12 H F G I J 0 E D)))))
  (let ((a!2 (or (not G) a!1 (not (and (= C 1) (= B D))))))
    (=> (not a!2) (Proc13 H F G A J C B))))))
(assert (forall ((A Int) (B Int) (C Int) (G Bool))
  (=> (not (or (not G) (= C 0))) (Proc14 B A G C))))
(assert (forall ((A Int)
         (B Int)
         (C Int)
         (D Int)
         (E Int)
         (F Int)
         (G Bool)
         (H Int)
         (I Int)
         (J Int)
         (K Int)
         (L Int)
         (M Int)
         (N Int)
         (O Int)
         (P Int)
         (Q Int)
         (R Int))
  (let ((a!1 (not (and (= P (- 1073741670)) (= R P))))
        (a!2 (not (and (= O (- 1073741811)) (= R O)))))
  (let ((a!3 (and (or (not (= R 0)) (not (= Q R)))
                  (or a!1 (not (= Q R)))
                  (or a!2 (not (= Q R))))))
    (=> (not (or (not G) a!3)) (Proc10 N M G L K J I H F E D C B A Q))))))
(assert (forall ((A Int) (B Int) (C Int) (D Int) (E Int) (G Bool))
  (let ((a!1 (not (or (not G) (= E 0) (not (= D 259))))))
    (=> a!1 (Proc15 C B G A E D)))))
(assert (forall ((A Int)
         (B Int)
         (C Int)
         (D Int)
         (E Int)
         (F Int)
         (G Bool)
         (H Int)
         (I Int)
         (J Int)
         (K Int))
  (let ((a!1 (and (not (<= H (+ 1 J))) (not (<= H I)))))
  (let ((a!2 (or (not (= K 1))
                 (not (= J I))
                 (not a!1)
                 (not (Proc16 H F G J K))
                 (not (and (= E K) (= D H)))))
        (a!3 (or (not (= K 0))
                 (not (= J I))
                 (not a!1)
                 (not (Proc16 H F G J K))
                 (not (and (= E K) (= D H))))))
    (=> (not (or (not G) (and a!2 a!3))) (Proc12 I F G C B A E D))))))
(assert (forall ((A Int) (B Int) (C Int) (D Int) (G Bool))
  (let ((a!1 (not (or (not G) (not (Proc17 D C G B)) (not (= A 0))))))
    (=> a!1 (Proc2 D C G B A)))))
(assert (forall ((A Int)
         (B Int)
         (C Int)
         (D Int)
         (E Int)
         (F Int)
         (G Bool)
         (H Int)
         (I Int))
  (let ((a!1 (and (not (<= F (+ 4 I))) (not (<= F H)))))
  (let ((a!2 (or (not G)
                 (not (= I H))
                 (not a!1)
                 (not (Proc18 F E G D I C))
                 (not (and (= B 0) (= A C))))))
    (=> (not a!2) (Proc6 H E G D B A))))))
(assert (forall ((A Int) (B Int) (C Int) (D Int) (E Int) (F Int) (G Bool))
  (let ((a!1 (and (not (<= D (+ 4 F))) (not (<= D E)))))
  (let ((a!2 (or (not G)
                 (not (= F E))
                 (not a!1)
                 (not (Proc14 D C G F))
                 (not (and (= B 0) (= A D))))))
    (=> (not a!2) (Proc4 E C G B A))))))
(assert (forall ((A Int) (B Int) (C Int) (D Int) (E Int) (F Int) (G Bool))
  (let ((a!1 (not (or (not G) (not (Proc19 F E G D C B)) (not (= A B))))))
    (=> a!1 (Proc8 F E G D C A)))))
(assert (forall ((A Int)
         (B Int)
         (C Int)
         (D Int)
         (E Int)
         (F Int)
         (G Bool)
         (H Int)
         (I Int)
         (J Int))
  (let ((a!1 (and (not (<= H (+ 1 J))) (not (<= H I)))))
  (let ((a!2 (or (not G)
                 (not (= J I))
                 (not a!1)
                 (not (Proc20 H F G J E))
                 (not (and (= D H) (= C E))))))
    (=> (not a!2) (Proc21 I F G B A D C))))))
(assert (forall ((A Int) (B Int) (C Int) (D Int) (G Bool))
  (let ((a!1 (not (or (not G) (not (= D 1))))))
    (=> a!1 (Proc20 C B G A D)))))
(assert (forall ((A Int) (B Int) (C Int) (G Bool)) (=> false (Proc22 C B G A))))
(assert (forall ((A Int) (B Int) (C Int) (D Int) (G Bool)) (=> G (Proc16 D C G B A))))
(assert (forall ((A Int) (B Int) (C Int) (G Bool)) (=> G (Proc23 C B G A))))
(assert (forall ((A Int)
         (B Int)
         (C Int)
         (D Int)
         (E Int)
         (F Int)
         (G Bool)
         (H Int)
         (I Int)
         (J Int)
         (K Int)
         (L Int)
         (M Int))
  (let ((a!1 (and (not (<= J (+ 1 L))) (not (<= J K))))
        (a!3 (or (not (= A 1))
                 (not (and (= H A) (= F B)))
                 (not (and (= E F) (= D H)))))
        (a!4 (or (= A 1)
                 (not (and (= H A) (= F B)))
                 (not (and (= E F) (= D H))))))
  (let ((a!2 (or (= M 259)
                 (not (= L K))
                 (not a!1)
                 (not (Proc22 J I G L))
                 (not (and (= H I) (= F J)))
                 (not (and (= E F) (= D H)))))
        (a!5 (or (not (= L K))
                 (not a!1)
                 (not (Proc22 J I G L))
                 (not (and (= H I) (= F J)))
                 (not (and (= E F) (= D H))))))
  (let ((a!6 (and (or (not (Proc21 K I G C M B A)) (and a!3 a!4)) a!5)))
  (let ((a!7 (and a!2 (or (not (= M 259)) a!6))))
    (=> (not (or (not G) a!7)) (Proc24 K I G C M E D))))))))
(assert (forall ((A Int) (B Int) (G Bool)) (=> G (Proc25 B A G))))
(assert (forall ((A Int) (B Int) (G Bool)) (=> G (Proc26 B A G))))
(assert (forall ((A Int) (B Int) (G Bool)) (=> G (Proc27 B A G))))
(assert (forall ((A Int) (B Int) (C Int) (G Bool))
  (let ((a!1 (not (or (not G) (not (= C 0))))))
    (=> a!1 (Proc28 B A G C)))))
(assert (forall ((A Int)
         (B Int)
         (C Int)
         (D Int)
         (E Int)
         (F Int)
         (G Bool)
         (H Int)
         (I Int)
         (J Int)
         (K Int)
         (L Int)
         (M Int)
         (S Bool)
         (T Bool)
         (U Bool))
  (let ((a!1 (not (and (not (<= M 0)) (Proc29 M L U K))))
        (a!2 (not (and (= D F) (= C H) (= S T) (= B I)))))
  (let ((a!3 (or (= H 0) (not (and (= F E) (not T))) a!2))
        (a!4 (or (not (and (= H 0) (= G U))) (not (and (= F A) (= T G))) a!2)))
  (let ((a!5 (and (or (= H 1) (and a!3 a!4)) (or (not (= H 1)) (and a!3 a!4)))))
  (let ((a!6 (not (or (not U)
                      a!1
                      (not (Proc28 K L U J))
                      (not (Proc27 K J U))
                      (not (Proc26 K J U))
                      (not (Proc25 K J U))
                      (not (Proc30 K J U I H))
                      a!5))))
    (=> a!6 (Proc31 M L U D C S B))))))))
(assert (forall ((A Int) (B Int) (C Int) (G Bool))
  (let ((a!1 (not (or (not G) (not (= C 1))))))
    (=> a!1 (Proc32 B A G C)))))
(assert (forall ((A Int) (B Int) (C Int) (G Bool))
  (let ((a!1 (not (or (not G) (not (= C 0))))))
    (=> a!1 (Proc33 B A G C)))))
(assert (forall ((A Int) (B Int) (C Int) (G Bool))
  (let ((a!1 (not (or (not G) (not (= C 1))))))
    (=> a!1 (Proc34 B A G C)))))
(assert (forall ((A Int) (B Int) (C Int) (G Bool))
  (let ((a!1 (not (or (not G) (not (= C 1))))))
    (=> a!1 (Proc35 B A G C)))))
(assert (forall ((A Int) (B Int) (C Int) (G Bool))
  (let ((a!1 (not (or (not G) (not (= C 1))))))
    (=> a!1 (Proc36 B A G C)))))
(assert (forall ((A Int) (B Int) (C Int) (G Bool))
  (let ((a!1 (not (or (not G) (not (= C 0))))))
    (=> a!1 (Proc37 B A G C)))))
(assert (forall ((A Int) (B Int) (C Int) (G Bool))
  (let ((a!1 (not (or (not G) (not (= C 0))))))
    (=> a!1 (Proc38 B A G C)))))
(assert (forall ((A Int) (B Int) (C Int) (G Bool))
  (let ((a!1 (not (or (not G) (not (= C 1))))))
    (=> a!1 (Proc39 B A G C)))))
(assert (forall ((A Int) (B Int) (C Int) (G Bool))
  (let ((a!1 (not (or (not G) (not (= C 1))))))
    (=> a!1 (Proc40 B A G C)))))
(assert (forall ((A Int) (B Int) (C Int) (G Bool))
  (let ((a!1 (not (or (not G) (not (= C 0))))))
    (=> a!1 (Proc41 B A G C)))))
(assert (forall ((A Int) (B Int) (C Int) (G Bool))
  (let ((a!1 (not (or (not G) (not (= C 0))))))
    (=> a!1 (Proc42 B A G C)))))
(assert (forall ((A Int) (B Int) (C Int) (D Int) (G Bool))
  (let ((a!1 (or (not G) (not (= D (- 1073741823))) (not (= C D)))))
    (=> (not a!1) (Proc43 B A G C)))))
(assert (forall ((A Int) (B Int) (C Int) (G Bool)) (=> G (Proc17 C B G A))))
(assert (forall ((A Int) (B Int) (C Int) (D Int) (E Int) (F Int) (G Bool))
  (let ((a!1 (not (or (not G) (not (Proc15 F E G D C B)) (not (= A B))))))
    (=> a!1 (Proc19 F E G D C A)))))
(assert (forall ((A Int) (B Int) (C Int) (G Bool))
  (let ((a!1 (not (or (not G) (not (= C 0))))))
    (=> a!1 (Proc44 B A G C)))))
(assert (forall ((A Int) (B Int) (C Int) (D Int) (E Int) (F Int) (G Bool) (H Int))
  (let ((a!1 (and (not (<= E (+ 1 H))) (not (<= E F)))))
  (let ((a!2 (not (or (not G)
                      (not (= H F))
                      (not a!1)
                      (not (Proc23 E D G H))
                      (= C 0)
                      (not (= B E))))))
    (=> a!2 (Proc18 F D G A C B))))))
(assert (forall ((A Int)
         (B Int)
         (C Int)
         (D Int)
         (E Int)
         (F Int)
         (G Bool)
         (H Int)
         (I Int)
         (J Int)
         (K Int)
         (L Int)
         (M Int)
         (N Int)
         (O Int)
         (P Int)
         (Q Int)
         (R Int)
         (V Int)
         (W Int)
         (X Int)
         (Y Int)
         (Z Int)
         (A1 Int)
         (B1 Int)
         (C1 Int)
         (D1 Int)
         (E1 Int)
         (F1 Int)
         (G1 Int)
         (H1 Int)
         (I1 Int)
         (J1 Int)
         (K1 Int)
         (L1 Int)
         (M1 Int))
  (let ((a!1 (and (not (<= D1 (+ 1 E1))) (not (<= D1 F1))))
        (a!2 (not (and (= A1 G1) (= Z C1) (= Y B1)))))
  (let ((a!3 (and (or (not (= B1 1)) a!2) (or (= B1 1) a!2))))
  (let ((a!4 (or (= J1 0)
                 (not (Proc3 L1 K1 G I1 M1 H1))
                 (not (and (= G1 H1) (= F1 L1)))
                 (not (Proc47 F1 K1 G G1 M1))
                 (= M1 0)
                 (not (= E1 F1))
                 (not a!1)
                 (not (Proc24 D1 K1 G E1 G1 C1 B1))
                 a!3))
        (a!5 (or (= J1 0)
                 (not (Proc43 L1 K1 G X))
                 (not (and (= G1 X) (= F1 L1)))
                 (not (Proc47 F1 K1 G G1 M1))
                 (= M1 0)
                 (not (= E1 F1))
                 (not a!1)
                 (not (Proc24 D1 K1 G E1 G1 C1 B1))
                 a!3))
        (a!6 (or (= J1 0)
                 (not (Proc7 L1 K1 G I1 M1 W V))
                 (not (and (= G1 W) (= F1 V)))
                 (not (Proc47 F1 K1 G G1 M1))
                 (= M1 0)
                 (not (= E1 F1))
                 (not a!1)
                 (not (Proc24 D1 K1 G E1 G1 C1 B1))
                 a!3))
        (a!7 (or (= J1 0)
                 (not (Proc11 L1 K1 G I1 M1 R))
                 (not (and (= G1 R) (= F1 L1)))
                 (not (Proc47 F1 K1 G G1 M1))
                 (= M1 0)
                 (not (= E1 F1))
                 (not a!1)
                 (not (Proc24 D1 K1 G E1 G1 C1 B1))
                 a!3))
        (a!8 (or (= J1 0)
                 (not (Proc43 L1 K1 G Q))
                 (not (and (= G1 Q) (= F1 L1)))
                 (not (Proc47 F1 K1 G G1 M1))
                 (= M1 0)
                 (not (= E1 F1))
                 (not a!1)
                 (not (Proc24 D1 K1 G E1 G1 C1 B1))
                 a!3))
        (a!9 (or (= J1 0)
                 (not (Proc43 L1 K1 G P))
                 (not (and (= G1 P) (= F1 L1)))
                 (not (Proc47 F1 K1 G G1 M1))
                 (= M1 0)
                 (not (= E1 F1))
                 (not a!1)
                 (not (Proc24 D1 K1 G E1 G1 C1 B1))
                 a!3))
        (a!10 (or (= J1 0)
                  (not (Proc43 L1 K1 G O))
                  (not (and (= G1 O) (= F1 L1)))
                  (not (Proc47 F1 K1 G G1 M1))
                  (= M1 0)
                  (not (= E1 F1))
                  (not a!1)
                  (not (Proc24 D1 K1 G E1 G1 C1 B1))
                  a!3))
        (a!11 (or (not (Proc43 L1 K1 G N))
                  (not (and (= G1 N) (= F1 L1)))
                  (not (Proc47 F1 K1 G G1 M1))
                  (= M1 0)
                  (not (= E1 F1))
                  (not a!1)
                  (not (Proc24 D1 K1 G E1 G1 C1 B1))
                  a!3))
        (a!12 (or (= J1 0)
                  (not (Proc43 L1 K1 G M))
                  (not (and (= G1 M) (= F1 L1)))
                  (not (Proc47 F1 K1 G G1 M1))
                  (= M1 0)
                  (not (= E1 F1))
                  (not a!1)
                  (not (Proc24 D1 K1 G E1 G1 C1 B1))
                  a!3))
        (a!13 (or (= J1 0)
                  (not (Proc43 L1 K1 G L))
                  (not (and (= G1 L) (= F1 L1)))
                  (not (Proc47 F1 K1 G G1 M1))
                  (= M1 0)
                  (not (= E1 F1))
                  (not a!1)
                  (not (Proc24 D1 K1 G E1 G1 C1 B1))
                  a!3))
        (a!14 (or (= J1 0)
                  (not (Proc43 L1 K1 G K))
                  (not (and (= G1 K) (= F1 L1)))
                  (not (Proc47 F1 K1 G G1 M1))
                  (= M1 0)
                  (not (= E1 F1))
                  (not a!1)
                  (not (Proc24 D1 K1 G E1 G1 C1 B1))
                  a!3))
        (a!15 (or (not (Proc43 L1 K1 G J))
                  (not (and (= G1 J) (= F1 L1)))
                  (not (Proc47 F1 K1 G G1 M1))
                  (= M1 0)
                  (not (= E1 F1))
                  (not a!1)
                  (not (Proc24 D1 K1 G E1 G1 C1 B1))
                  a!3))
        (a!16 (or (= J1 0)
                  (not (Proc43 L1 K1 G I))
                  (not (and (= G1 I) (= F1 L1)))
                  (not (Proc47 F1 K1 G G1 M1))
                  (= M1 0)
                  (not (= E1 F1))
                  (not a!1)
                  (not (Proc24 D1 K1 G E1 G1 C1 B1))
                  a!3))
        (a!17 (or (= J1 0)
                  (not (Proc48 L1 K1 G M1))
                  (not (Proc5 L1 K1 G I1 M1 H F))
                  (not (and (= G1 H) (= F1 F)))
                  (not (Proc47 F1 K1 G G1 M1))
                  (= M1 0)
                  (not (= E1 F1))
                  (not a!1)
                  (not (Proc24 D1 K1 G E1 G1 C1 B1))
                  a!3))
        (a!18 (or (= J1 0)
                  (not (Proc9 L1 K1 G I1 M1 E))
                  (not (and (= G1 E) (= F1 L1)))
                  (not (Proc47 F1 K1 G G1 M1))
                  (= M1 0)
                  (not (= E1 F1))
                  (not a!1)
                  (not (Proc24 D1 K1 G E1 G1 C1 B1))
                  a!3))
        (a!19 (or (not (Proc43 L1 K1 G D))
                  (not (and (= G1 D) (= F1 L1)))
                  (not (Proc47 F1 K1 G G1 M1))
                  (= M1 0)
                  (not (= E1 F1))
                  (not a!1)
                  (not (Proc24 D1 K1 G E1 G1 C1 B1))
                  a!3))
        (a!20 (or (= J1 0)
                  (not (Proc43 L1 K1 G C))
                  (not (and (= G1 C) (= F1 L1)))
                  (not (Proc47 F1 K1 G G1 M1))
                  (= M1 0)
                  (not (= E1 F1))
                  (not a!1)
                  (not (Proc24 D1 K1 G E1 G1 C1 B1))
                  a!3))
        (a!21 (or (not (= B 1))
                  (= B 0)
                  (= J1 0)
                  (not (Proc43 L1 K1 G C))
                  (not (and (= G1 C) (= F1 L1)))
                  (not (Proc47 F1 K1 G G1 M1))
                  (= M1 0)
                  (not (= E1 F1))
                  (not a!1)
                  (not (Proc24 D1 K1 G E1 G1 C1 B1))
                  a!3)))
  (let ((a!22 (and (or (= J1 0) (and a!20 a!21))
                   (or (not (= A 1)) (= A 0) (= J1 0) (and a!20 a!21)))))
  (let ((a!23 (or (not G)
                  (= M1 0)
                  (not (Proc45 L1 K1 G M1))
                  (= J1 0)
                  (not (Proc46 L1 K1 G))
                  (and a!4
                       a!5
                       a!6
                       a!7
                       a!8
                       a!9
                       a!10
                       a!11
                       a!12
                       a!13
                       a!14
                       a!15
                       a!16
                       a!17
                       a!18
                       a!19
                       (or (= J1 0) a!22)))))
    (=> (not a!23) (Proc49 L1 K1 G I1 M1 A1 Z Y)))))))))
(assert (forall ((A Int) (B Int) (C Int) (D Int) (E Int) (G Bool))
  (let ((a!1 (not (or (not G)
                      (not (Proc50 E D G))
                      (not (Proc43 E D G C))
                      (not (Proc51 E D G))))))
    (=> a!1 (Proc52 E D G B A)))))
(assert (forall ((A Int) (B Int) (C Int) (D Int) (G Bool))
  (=> (not (or (not G) (= D 0) (= C 0))) (Proc48 B A G D))))
(assert (forall ((A Int) (B Int) (C Int) (G Bool))
  (=> (not (or (not G) (= C 0))) (Proc45 B A G C))))
(assert (forall ((A Int) (B Int) (G Bool)) (=> G (Proc0 B A G))))
(assert (forall ((A Int)
         (B Int)
         (C Int)
         (D Int)
         (E Int)
         (F Int)
         (G Bool)
         (H Int)
         (I Int)
         (J Int)
         (K Int)
         (L Int)
         (M Int)
         (N Int)
         (O Int)
         (P Int)
         (Q Int)
         (R Int)
         (V Int)
         (W Int)
         (X Int)
         (Y Int)
         (Z Int)
         (A1 Int)
         (B1 Int)
         (C1 Int)
         (D1 Int)
         (E1 Int)
         (F1 Int)
         (G1 Int)
         (H1 Int)
         (I1 Int)
         (J1 Int)
         (K1 Int))
  (let ((a!1 (or (not (= P 1))
                 (not (and (= O Q) (= N P)))
                 (not (and (= M O) (= L N)))))
        (a!2 (or (= P 1)
                 (not (and (= O Q) (= N P)))
                 (not (and (= M O) (= L N)))))
        (a!3 (or (not (= I1 0))
                 (not (and (= O K1) (= N J1)))
                 (not (and (= M O) (= L N)))))
        (a!4 (or (= H1 0)
                 (not (Proc53 K1 J1 G))
                 (not (Proc52 K1 J1 G K J))
                 (not (and (= O K1) (= N J1)))
                 (not (and (= M O) (= L N)))))
        (a!5 (or (not (= H1 0))
                 (not (and (= O K1) (= N J1)))
                 (not (and (= M O) (= L N)))))
        (a!6 (or (not (Proc1 K1 J1 G I H F E))
                 (not (and (= O K1) (= N J1)))
                 (not (and (= M O) (= L N)))))
        (a!7 (or (not (and (= O K1) (= N J1))) (not (and (= M O) (= L N)))))
        (a!8 (or (not (Proc13 K1 J1 G D C B A))
                 (not (and (= O A) (= N J1)))
                 (not (and (= M O) (= L N))))))
  (let ((a!9 (and (or (= I1 0)
                      (not (Proc53 K1 J1 G))
                      (not (Proc49 K1 J1 G W V R Q P))
                      (and a!1 a!2))
                  a!3
                  a!4
                  a!5
                  a!6
                  a!7
                  a!8)))
  (let ((a!10 (not (or (not G)
                       (not (Proc34 K1 J1 G I1))
                       (not (Proc41 K1 J1 G H1))
                       (not (Proc35 K1 J1 G G1))
                       (not (Proc40 K1 J1 G F1))
                       (not (Proc33 K1 J1 G E1))
                       (not (Proc37 K1 J1 G D1))
                       (not (Proc44 K1 J1 G C1))
                       (not (Proc42 K1 J1 G B1))
                       (not (Proc32 K1 J1 G A1))
                       (not (Proc38 K1 J1 G Z))
                       (not (Proc39 K1 J1 G Y))
                       (not (Proc36 K1 J1 G X))
                       a!9))))
    (=> a!10 (Proc30 K1 J1 G M L)))))))
(assert (forall ((A Int) (B Int) (G Bool)) (=> G (Proc46 B A G))))
(assert (forall ((A Int) (B Int) (C Int) (D Int) (G Bool)) (=> G (Proc47 D C G B A))))
(assert (forall ((A Int) (B Int) (G Bool)) (=> G (Proc53 B A G))))
(assert (forall ((A Int) (B Int) (G Bool)) (=> G (Proc50 B A G))))
(assert (forall ((A Int) (B Int) (G Bool)) (=> G (Proc51 B A G))))
(assert (forall ((A Int)
         (B Int)
         (C Int)
         (D Int)
         (E Int)
         (F Int)
         (G Bool)
         (H Int)
         (I Int)
         (J Int)
         (K Int)
         (L Int)
         (M Int)
         (N Int)
         (O Int)
         (P Int)
         (Q Int)
         (R Int)
         (V Int)
         (W Int)
         (X Int)
         (Y Int)
         (Z Int)
         (A1 Int)
         (B1 Int)
         (C1 Int)
         (D1 Int)
         (E1 Int)
         (F1 Int)
         (G1 Int)
         (H1 Int)
         (I1 Int)
         (J1 Int)
         (K1 Int)
         (L1 Int)
         (M1 Int)
         (N1 Int)
         (O1 Int)
         (P1 Int)
         (Q1 Int)
         (R1 Int)
         (S1 Int)
         (T1 Int)
         (U1 Int)
         (V1 Int)
         (W1 Int)
         (X1 Int)
         (Y1 Int)
         (Z1 Int)
         (A2 Int)
         (B2 Int)
         (C2 Int))
  (let ((a!1 (and (= C2 B2)
                  (not (<= A2 (+ 240 C2)))
                  (not (<= A2 B2))
                  (= Z1 A2)
                  (not (<= Y1 (+ 4 Z1)))
                  (not (<= Y1 A2))
                  (= X1 Y1)
                  (not (<= W1 (+ 332 X1)))))
        (a!2 (and (not (<= W1 Y1))
                  (= V1 W1)
                  (not (<= U1 (+ 4 V1)))
                  (not (<= U1 W1))
                  (= T1 U1)
                  (not (<= S1 (+ 536 T1)))
                  (not (<= S1 U1))
                  (= R1 S1)
                  (not (<= Q1 (+ 240 R1)))
                  (not (<= Q1 S1))
                  (= P1 Q1)
                  (not (<= O1 (+ 240 P1)))
                  (not (<= O1 Q1))
                  (= N1 O1)
                  (not (<= M1 (+ 240 N1)))
                  (not (<= M1 O1))
                  (= L1 M1)
                  (not (<= K1 (+ 4 L1)))
                  (not (<= K1 M1))
                  (= J1 K1)
                  (not (<= I1 (+ 536 J1)))
                  (not (<= I1 K1))
                  (= H1 I1)
                  (not (<= G1 (+ 332 H1)))
                  (not (<= G1 I1))
                  (= F1 G1)
                  (not (<= E1 (+ 240 F1)))
                  (not (<= E1 G1))
                  (= D1 E1)
                  (not (<= C1 (+ 240 D1)))
                  (not (<= C1 E1))
                  (= B1 C1)
                  (not (<= A1 (+ 332 B1)))
                  (not (<= A1 C1))
                  (= Z A1)
                  (not (<= Y (+ 4 Z)))
                  (not (<= Y A1))
                  (= X Y)
                  (not (<= W (+ 240 X)))
                  (not (<= W Y))
                  (= V W)
                  (not (<= R (+ 240 V)))
                  (not (<= R W))
                  (= Q R)
                  (not (<= P (+ 240 Q)))
                  (not (<= P R))
                  (= O P)
                  (not (<= N (+ 240 O)))
                  (not (<= N P))
                  (= M N)
                  (not (<= L (+ 240 M)))
                  (not (<= L N))
                  (= K L)
                  (not (<= J (+ 40 K)))
                  (not (<= J L))
                  (= I J)
                  (not (<= H (+ 332 I)))
                  (not (<= H J))
                  (= F H)
                  (not (<= E (+ 4 F)))
                  (not (<= E H))
                  (= D E)
                  (not (<= C (+ 40 D)))
                  (not (<= C E)))))
  (let ((a!3 (not (or (not G) (not a!1) (not a!2) (not (= B C))))))
    (=> a!3 (Proc29 B2 A G B))))))
(assert (forall ((A Int)
         (B Int)
         (C Int)
         (D Int)
         (E Int)
         (F Int)
         (G Bool)
         (H Int)
         (I Int)
         (S Bool)
         (T Bool))
  (let ((a!1 (or (not T) (not (and (Proc31 I H true F E S D) (not S))))))
    (=> (not a!1) (Proc54 I H T C G B A)))))
(assert (let ((a!1 (exists ((V0 Int)
                    (V1 Int)
                    (V2 Bool)
                    (V3 Int)
                    (V4 Bool)
                    (V5 Int)
                    (V6 Int))
             (not (=> (and (Proc54 V0 V1 V2 V3 V4 V5 V6) (not false)) false)))))
  (not a!1)))

(check-sat)
